p cnf 0 0
c 1 color par vertex et au plus 1
5 6 7 8 0
-6 -5 0
-7 -5 0
-8 -5 0
-7 -6 0
-8 -6 0
-8 -7 0
9 10 11 12 0
-10 -9 0
-11 -9 0
-12 -9 0
-11 -10 0
-12 -10 0
-12 -11 0
13 14 15 16 0
-14 -13 0
-15 -13 0
-16 -13 0
-15 -14 0
-16 -14 0
-16 -15 0
17 18 19 20 0
-18 -17 0
-19 -17 0
-20 -17 0
-19 -18 0
-20 -18 0
-20 -19 0
21 22 23 24 0
-22 -21 0
-23 -21 0
-24 -21 0
-23 -22 0
-24 -22 0
-24 -23 0
c gc coresp to G
-5 -10 25 0
-5 -10 -26 1 0
-5 -10 26 -1 0
-5 -11 27 0
-5 -11 -28 1 0
-5 -11 28 -1 0
-5 -12 29 0
-5 -12 -30 1 0
-5 -12 30 -1 0
-6 -9 25 0
-6 -9 -26 1 0
-6 -9 26 -1 0
-6 -11 31 0
-6 -11 -32 1 0
-6 -11 32 -1 0
-6 -12 33 0
-6 -12 -34 1 0
-6 -12 34 -1 0
-7 -9 27 0
-7 -9 -28 1 0
-7 -9 28 -1 0
-7 -10 31 0
-7 -10 -32 1 0
-7 -10 32 -1 0
-7 -12 35 0
-7 -12 -36 1 0
-7 -12 36 -1 0
-8 -9 29 0
-8 -9 -30 1 0
-8 -9 30 -1 0
-8 -10 33 0
-8 -10 -34 1 0
-8 -10 34 -1 0
-8 -11 35 0
-8 -11 -36 1 0
-8 -11 36 -1 0
-9 -14 25 0
-9 -14 -26 2 0
-9 -14 26 -2 0
-9 -15 27 0
-9 -15 -28 2 0
-9 -15 28 -2 0
-9 -16 29 0
-9 -16 -30 2 0
-9 -16 30 -2 0
-10 -13 25 0
-10 -13 -26 2 0
-10 -13 26 -2 0
-10 -15 31 0
-10 -15 -32 2 0
-10 -15 32 -2 0
-10 -16 33 0
-10 -16 -34 2 0
-10 -16 34 -2 0
-11 -13 27 0
-11 -13 -28 2 0
-11 -13 28 -2 0
-11 -14 31 0
-11 -14 -32 2 0
-11 -14 32 -2 0
-11 -16 35 0
-11 -16 -36 2 0
-11 -16 36 -2 0
-12 -13 29 0
-12 -13 -30 2 0
-12 -13 30 -2 0
-12 -14 33 0
-12 -14 -34 2 0
-12 -14 34 -2 0
-12 -15 35 0
-12 -15 -36 2 0
-12 -15 36 -2 0
-13 -18 25 0
-13 -18 -26 3 0
-13 -18 26 -3 0
-13 -19 27 0
-13 -19 -28 3 0
-13 -19 28 -3 0
-13 -20 29 0
-13 -20 -30 3 0
-13 -20 30 -3 0
-14 -17 25 0
-14 -17 -26 3 0
-14 -17 26 -3 0
-14 -19 31 0
-14 -19 -32 3 0
-14 -19 32 -3 0
-14 -20 33 0
-14 -20 -34 3 0
-14 -20 34 -3 0
-15 -17 27 0
-15 -17 -28 3 0
-15 -17 28 -3 0
-15 -18 31 0
-15 -18 -32 3 0
-15 -18 32 -3 0
-15 -20 35 0
-15 -20 -36 3 0
-15 -20 36 -3 0
-16 -17 29 0
-16 -17 -30 3 0
-16 -17 30 -3 0
-16 -18 33 0
-16 -18 -34 3 0
-16 -18 34 -3 0
-16 -19 35 0
-16 -19 -36 3 0
-16 -19 36 -3 0
-17 -22 25 0
-17 -22 -26 4 0
-17 -22 26 -4 0
-17 -23 27 0
-17 -23 -28 4 0
-17 -23 28 -4 0
-17 -24 29 0
-17 -24 -30 4 0
-17 -24 30 -4 0
-18 -21 25 0
-18 -21 -26 4 0
-18 -21 26 -4 0
-18 -23 31 0
-18 -23 -32 4 0
-18 -23 32 -4 0
-18 -24 33 0
-18 -24 -34 4 0
-18 -24 34 -4 0
-19 -21 27 0
-19 -21 -28 4 0
-19 -21 28 -4 0
-19 -22 31 0
-19 -22 -32 4 0
-19 -22 32 -4 0
-19 -24 35 0
-19 -24 -36 4 0
-19 -24 36 -4 0
-20 -21 29 0
-20 -21 -30 4 0
-20 -21 30 -4 0
-20 -22 33 0
-20 -22 -34 4 0
-20 -22 34 -4 0
-20 -23 35 0
-20 -23 -36 4 0
-20 -23 36 -4 0
c X
-38 5 0
-37 5 0
-38 10 0
-37 10 0
-38 1 0
-37 -1 0
38 -5 -10 -1 0
37 -5 -10 1 0
-40 5 0
-39 5 0
-40 11 0
-39 11 0
-40 1 0
-39 -1 0
40 -5 -11 -1 0
39 -5 -11 1 0
-42 5 0
-41 5 0
-42 12 0
-41 12 0
-42 1 0
-41 -1 0
42 -5 -12 -1 0
41 -5 -12 1 0
-44 6 0
-43 6 0
-44 9 0
-43 9 0
-44 1 0
-43 -1 0
44 -6 -9 -1 0
43 -6 -9 1 0
-46 6 0
-45 6 0
-46 11 0
-45 11 0
-46 1 0
-45 -1 0
46 -6 -11 -1 0
45 -6 -11 1 0
-48 6 0
-47 6 0
-48 12 0
-47 12 0
-48 1 0
-47 -1 0
48 -6 -12 -1 0
47 -6 -12 1 0
-50 7 0
-49 7 0
-50 9 0
-49 9 0
-50 1 0
-49 -1 0
50 -7 -9 -1 0
49 -7 -9 1 0
-52 7 0
-51 7 0
-52 10 0
-51 10 0
-52 1 0
-51 -1 0
52 -7 -10 -1 0
51 -7 -10 1 0
-54 7 0
-53 7 0
-54 12 0
-53 12 0
-54 1 0
-53 -1 0
54 -7 -12 -1 0
53 -7 -12 1 0
-56 8 0
-55 8 0
-56 9 0
-55 9 0
-56 1 0
-55 -1 0
56 -8 -9 -1 0
55 -8 -9 1 0
-58 8 0
-57 8 0
-58 10 0
-57 10 0
-58 1 0
-57 -1 0
58 -8 -10 -1 0
57 -8 -10 1 0
-60 8 0
-59 8 0
-60 11 0
-59 11 0
-60 1 0
-59 -1 0
60 -8 -11 -1 0
59 -8 -11 1 0
-62 9 0
-61 9 0
-62 14 0
-61 14 0
-62 2 0
-61 -2 0
62 -9 -14 -2 0
61 -9 -14 2 0
-64 9 0
-63 9 0
-64 15 0
-63 15 0
-64 2 0
-63 -2 0
64 -9 -15 -2 0
63 -9 -15 2 0
-66 9 0
-65 9 0
-66 16 0
-65 16 0
-66 2 0
-65 -2 0
66 -9 -16 -2 0
65 -9 -16 2 0
-68 10 0
-67 10 0
-68 13 0
-67 13 0
-68 2 0
-67 -2 0
68 -10 -13 -2 0
67 -10 -13 2 0
-70 10 0
-69 10 0
-70 15 0
-69 15 0
-70 2 0
-69 -2 0
70 -10 -15 -2 0
69 -10 -15 2 0
-72 10 0
-71 10 0
-72 16 0
-71 16 0
-72 2 0
-71 -2 0
72 -10 -16 -2 0
71 -10 -16 2 0
-74 11 0
-73 11 0
-74 13 0
-73 13 0
-74 2 0
-73 -2 0
74 -11 -13 -2 0
73 -11 -13 2 0
-76 11 0
-75 11 0
-76 14 0
-75 14 0
-76 2 0
-75 -2 0
76 -11 -14 -2 0
75 -11 -14 2 0
-78 11 0
-77 11 0
-78 16 0
-77 16 0
-78 2 0
-77 -2 0
78 -11 -16 -2 0
77 -11 -16 2 0
-80 12 0
-79 12 0
-80 13 0
-79 13 0
-80 2 0
-79 -2 0
80 -12 -13 -2 0
79 -12 -13 2 0
-82 12 0
-81 12 0
-82 14 0
-81 14 0
-82 2 0
-81 -2 0
82 -12 -14 -2 0
81 -12 -14 2 0
-84 12 0
-83 12 0
-84 15 0
-83 15 0
-84 2 0
-83 -2 0
84 -12 -15 -2 0
83 -12 -15 2 0
-86 13 0
-85 13 0
-86 18 0
-85 18 0
-86 3 0
-85 -3 0
86 -13 -18 -3 0
85 -13 -18 3 0
-88 13 0
-87 13 0
-88 19 0
-87 19 0
-88 3 0
-87 -3 0
88 -13 -19 -3 0
87 -13 -19 3 0
-90 13 0
-89 13 0
-90 20 0
-89 20 0
-90 3 0
-89 -3 0
90 -13 -20 -3 0
89 -13 -20 3 0
-92 14 0
-91 14 0
-92 17 0
-91 17 0
-92 3 0
-91 -3 0
92 -14 -17 -3 0
91 -14 -17 3 0
-94 14 0
-93 14 0
-94 19 0
-93 19 0
-94 3 0
-93 -3 0
94 -14 -19 -3 0
93 -14 -19 3 0
-96 14 0
-95 14 0
-96 20 0
-95 20 0
-96 3 0
-95 -3 0
96 -14 -20 -3 0
95 -14 -20 3 0
-98 15 0
-97 15 0
-98 17 0
-97 17 0
-98 3 0
-97 -3 0
98 -15 -17 -3 0
97 -15 -17 3 0
-100 15 0
-99 15 0
-100 18 0
-99 18 0
-100 3 0
-99 -3 0
100 -15 -18 -3 0
99 -15 -18 3 0
-102 15 0
-101 15 0
-102 20 0
-101 20 0
-102 3 0
-101 -3 0
102 -15 -20 -3 0
101 -15 -20 3 0
-104 16 0
-103 16 0
-104 17 0
-103 17 0
-104 3 0
-103 -3 0
104 -16 -17 -3 0
103 -16 -17 3 0
-106 16 0
-105 16 0
-106 18 0
-105 18 0
-106 3 0
-105 -3 0
106 -16 -18 -3 0
105 -16 -18 3 0
-108 16 0
-107 16 0
-108 19 0
-107 19 0
-108 3 0
-107 -3 0
108 -16 -19 -3 0
107 -16 -19 3 0
-110 17 0
-109 17 0
-110 22 0
-109 22 0
-110 4 0
-109 -4 0
110 -17 -22 -4 0
109 -17 -22 4 0
-112 17 0
-111 17 0
-112 23 0
-111 23 0
-112 4 0
-111 -4 0
112 -17 -23 -4 0
111 -17 -23 4 0
-114 17 0
-113 17 0
-114 24 0
-113 24 0
-114 4 0
-113 -4 0
114 -17 -24 -4 0
113 -17 -24 4 0
-116 18 0
-115 18 0
-116 21 0
-115 21 0
-116 4 0
-115 -4 0
116 -18 -21 -4 0
115 -18 -21 4 0
-118 18 0
-117 18 0
-118 23 0
-117 23 0
-118 4 0
-117 -4 0
118 -18 -23 -4 0
117 -18 -23 4 0
-120 18 0
-119 18 0
-120 24 0
-119 24 0
-120 4 0
-119 -4 0
120 -18 -24 -4 0
119 -18 -24 4 0
-122 19 0
-121 19 0
-122 21 0
-121 21 0
-122 4 0
-121 -4 0
122 -19 -21 -4 0
121 -19 -21 4 0
-124 19 0
-123 19 0
-124 22 0
-123 22 0
-124 4 0
-123 -4 0
124 -19 -22 -4 0
123 -19 -22 4 0
-126 19 0
-125 19 0
-126 24 0
-125 24 0
-126 4 0
-125 -4 0
126 -19 -24 -4 0
125 -19 -24 4 0
-128 20 0
-127 20 0
-128 21 0
-127 21 0
-128 4 0
-127 -4 0
128 -20 -21 -4 0
127 -20 -21 4 0
-130 20 0
-129 20 0
-130 22 0
-129 22 0
-130 4 0
-129 -4 0
130 -20 -22 -4 0
129 -20 -22 4 0
-132 20 0
-131 20 0
-132 23 0
-131 23 0
-132 4 0
-131 -4 0
132 -20 -23 -4 0
131 -20 -23 4 0
c x suite
-25 -26 38 44 62 68 86 92 110 116 0
-27 -28 40 50 64 74 88 98 112 122 0
-29 -30 42 56 66 80 90 104 114 128 0
-31 -32 46 52 70 76 94 100 118 124 0
-33 -34 48 58 72 82 96 106 120 130 0
-35 -36 54 60 78 84 102 108 126 132 0
-25 26 37 43 61 67 85 91 109 115 0
-27 28 39 49 63 73 87 97 111 121 0
-29 30 41 55 65 79 89 103 113 127 0
-31 32 45 51 69 75 93 99 117 123 0
-33 34 47 57 71 81 95 105 119 129 0
-35 36 53 59 77 83 101 107 125 131 0
c proper colo
-5 -9 0
-6 -10 0
-7 -11 0
-8 -12 0
-9 -13 0
-10 -14 0
-11 -15 0
-12 -16 0
-13 -17 0
-14 -18 0
-15 -19 0
-16 -20 0
-17 -21 0
-18 -22 0
-19 -23 0
-20 -24 0
25 133 134 0
27 135 136 0
29 137 138 0
31 139 140 0
33 141 142 0
35 143 144 0
-133 27 0
-133 31 0
-133 28 32 0
-133 -28 -32 0
133 -27 -31 28 -32 0
133 -27 -31 -28 32 0
-134 29 0
-134 33 0
-134 30 34 0
-134 -30 -34 0
134 -29 -33 30 -34 0
134 -29 -33 -30 34 0
-135 25 0
-135 31 0
-135 26 32 0
-135 -26 -32 0
135 -25 -31 26 -32 0
135 -25 -31 -26 32 0
-136 29 0
-136 35 0
-136 30 36 0
-136 -30 -36 0
136 -29 -35 30 -36 0
136 -29 -35 -30 36 0
-137 25 0
-137 33 0
-137 26 34 0
-137 -26 -34 0
137 -25 -33 26 -34 0
137 -25 -33 -26 34 0
-138 27 0
-138 35 0
-138 28 36 0
-138 -28 -36 0
138 -27 -35 28 -36 0
138 -27 -35 -28 36 0
-139 25 0
-139 27 0
-139 26 28 0
-139 -26 -28 0
139 -25 -27 26 -28 0
139 -25 -27 -26 28 0
-140 33 0
-140 35 0
-140 34 36 0
-140 -34 -36 0
140 -33 -35 34 -36 0
140 -33 -35 -34 36 0
-141 25 0
-141 29 0
-141 26 30 0
-141 -26 -30 0
141 -25 -29 26 -30 0
141 -25 -29 -26 30 0
-142 31 0
-142 35 0
-142 32 36 0
-142 -32 -36 0
142 -31 -35 32 -36 0
142 -31 -35 -32 36 0
-143 27 0
-143 29 0
-143 28 30 0
-143 -28 -30 0
143 -27 -29 28 -30 0
143 -27 -29 -28 30 0
-144 31 0
-144 33 0
-144 32 34 0
-144 -32 -34 0
144 -31 -33 32 -34 0
144 -31 -33 -32 34 0
c K couleurs
5 9 13 17 21 0
6 10 14 18 22 0
7 11 15 19 23 0
8 12 16 20 24 0
1 0
-6 0
-7 0
-8 0
-11 0
-12 0
-16 0
